(set-logic QF_UF)
(declare-fun x_5 () Bool)
(declare-fun x_4 () Bool)
(declare-fun x_3 () Bool)
(declare-fun x_13 () Bool)
(declare-fun x_12 () Bool)
(declare-fun x_10 () Bool)
(declare-fun x_8 () Bool)
(declare-fun x_6 () Bool)
(declare-fun x_25 () Bool)
(declare-fun x_24 () Bool)
(declare-fun x_7 () Bool)
(declare-fun x_17 () Bool)
(declare-fun x_15 () Bool)
(declare-fun x_9 () Bool)
(declare-fun x_41 () Bool)
(declare-fun x_40 () Bool)
(declare-fun x_26 () Bool)
(declare-fun x_61 () Bool)
(declare-fun x_60 () Bool)
(declare-fun x_11 () Bool)
(declare-fun x_20 () Bool)
(declare-fun x_16 () Bool)
(declare-fun x_37 () Bool)
(declare-fun x_35 () Bool)
(declare-fun x_85 () Bool)
(declare-fun x_84 () Bool)
(declare-fun x_50 () Bool)
(declare-fun x_48 () Bool)
(declare-fun x_14 () Bool)
(declare-fun x_39 () Bool)
(declare-fun x_36 () Bool)
(declare-fun x_113 () Bool)
(declare-fun x_112 () Bool)
(declare-fun x_34 () Bool)
(declare-fun x_30 () Bool)
(declare-fun x_65 () Bool)
(declare-fun x_63 () Bool)
(declare-fun x_145 () Bool)
(declare-fun x_144 () Bool)
(declare-fun x_18 () Bool)
(declare-fun x_82 () Bool)
(declare-fun x_80 () Bool)
(declare-fun x_181 () Bool)
(declare-fun x_180 () Bool)
(declare-fun x_19 () Bool)
(declare-fun x_29 () Bool)
(declare-fun x_21 () Bool)
(declare-fun x_52 () Bool)
(declare-fun x_101 () Bool)
(declare-fun x_99 () Bool)
(declare-fun x_28 () Bool)
(declare-fun x_75 () Bool)
(declare-fun x_72 () Bool)
(declare-fun x_122 () Bool)
(declare-fun x_120 () Bool)
(declare-fun x_22 () Bool)
(declare-fun x_32 () Bool)
(declare-fun x_51 () Bool)
(declare-fun x_45 () Bool)
(declare-fun x_74 () Bool)
(declare-fun x_70 () Bool)
(declare-fun x_143 () Bool)
(declare-fun x_170 () Bool)
(declare-fun x_168 () Bool)
(declare-fun x_27 () Bool)
(declare-fun x_123 () Bool)
(declare-fun x_53 () Bool)
(declare-fun x_100 () Bool)
(declare-fun x_96 () Bool)
(declare-fun x_197 () Bool)
(declare-fun x_195 () Bool)
(declare-fun x_78 () Bool)
(declare-fun x_68 () Bool)
(declare-fun x_130 () Bool)
(declare-fun x_126 () Bool)
(declare-fun x_55 () Bool)
(declare-fun x_44 () Bool)
(declare-fun x_33 () Bool)
(declare-fun x_56 () Bool)
(declare-fun x_183 () Bool)
(declare-fun x_91 () Bool)
(declare-fun x_125 () Bool)
(declare-fun x_77 () Bool)
(declare-fun x_111 () Bool)
(declare-fun x_105 () Bool)
(declare-fun x_164 () Bool)
(declare-fun x_160 () Bool)
(declare-fun x_89 () Bool)
(declare-fun x_58 () Bool)
(declare-fun x_42 () Bool)
(declare-fun x_104 () Bool)
(declare-fun x_150 () Bool)
(declare-fun x_117 () Bool)
(declare-fun x_108 () Bool)
(declare-fun x_73 () Bool)
(declare-fun x_64 () Bool)
(declare-fun x_102 () Bool)
(declare-fun x_90 () Bool)
(declare-fun x_148 () Bool)
(declare-fun x_140 () Bool)
(declare-fun x_189 () Bool)
(declare-fun x_175 () Bool)
(declare-fun x_49 () Bool)
(declare-fun x_149 () Bool)
(declare-fun x_173 () Bool)
(declare-fun x_165 () Bool)
(declare-fun x_54 () Bool)
(declare-fun x_132 () Bool)
(declare-fun x_106 () Bool)
(declare-fun x_119 () Bool)
(declare-fun x_200 () Bool)
(declare-fun x_192 () Bool)
(declare-fun x_95 () Bool)
(declare-fun x_76 () Bool)
(declare-fun x_57 () Bool)
(declare-fun x_185 () Bool)
(declare-fun x_176 () Bool)
(declare-fun x_87 () Bool)
(declare-fun x_109 () Bool)
(declare-fun x_156 () Bool)
(declare-fun x_136 () Bool)
(declare-fun x_97 () Bool)
(declare-fun x_169 () Bool)
(declare-fun x_110 () Bool)
(declare-fun x_88 () Bool)
(declare-fun x_66 () Bool)
(declare-fun x_115 () Bool)
(declare-fun x_92 () Bool)
(declare-fun x_69 () Bool)
(declare-fun x_182 () Bool)
(declare-fun x_153 () Bool)
(declare-fun x_135 () Bool)
(declare-fun x_154 () Bool)
(declare-fun x_178 () Bool)
(declare-fun x_116 () Bool)
(declare-fun x_81 () Bool)
(declare-fun x_159 () Bool)
(declare-fun x_157 () Bool)
(declare-fun x_137 () Bool)
(declare-fun x_187 () Bool)
(declare-fun x_155 () Bool)
(declare-fun x_124 () Bool)
(declare-fun x_93 () Bool)
(declare-fun x_193 () Bool)
(declare-fun x_146 () Bool)
(declare-fun x_128 () Bool)
(declare-fun x_190 () Bool)
(declare-fun x_152 () Bool)
(declare-fun x_114 () Bool)
(declare-fun x_174 () Bool)
(declare-fun x_194 () Bool)
(assert (and (or x_3 x_4 x_5) (not (and x_3 x_4 x_5))))
(assert (and (or x_4 x_3 x_5) (not (and x_4 x_3 x_5))))
(assert (and (or x_5 x_12 x_13) (not (and x_5 x_12 x_13))))
(assert (and (or x_6 x_8 x_10) (not (and x_6 x_8 x_10))))
(assert (and (or x_7 x_24 x_25) (not (and x_7 x_24 x_25))))
(assert (and (or x_8 x_6 x_10) (not (and x_8 x_6 x_10))))
(assert (and (or x_8 x_15 x_17) (not (and x_8 x_15 x_17))))
(assert (and (or x_9 x_12 x_15) (not (and x_9 x_12 x_15))))
(assert (and (or x_9 x_40 x_41) (not (and x_9 x_40 x_41))))
(assert (and (or x_10 x_24 x_26) (not (and x_10 x_24 x_26))))
(assert (and (or x_11 x_60 x_61) (not (and x_11 x_60 x_61))))
(assert (and (or x_12 x_5 x_13) (not (and x_12 x_5 x_13))))
(assert (and (or x_12 x_9 x_15) (not (and x_12 x_9 x_15))))
(assert (and (or x_12 x_16 x_20) (not (and x_12 x_16 x_20))))
(assert (and (or x_12 x_35 x_37) (not (and x_12 x_35 x_37))))
(assert (and (or x_13 x_84 x_85) (not (and x_13 x_84 x_85))))
(assert (and (or x_14 x_48 x_50) (not (and x_14 x_48 x_50))))
(assert (and (or x_15 x_8 x_17) (not (and x_15 x_8 x_17))))
(assert (and (or x_15 x_20 x_25) (not (and x_15 x_20 x_25))))
(assert (and (or x_15 x_36 x_39) (not (and x_15 x_36 x_39))))
(assert (and (or x_15 x_112 x_113) (not (and x_15 x_112 x_113))))
(assert (and (or x_16 x_12 x_20) (not (and x_16 x_12 x_20))))
(assert (and (or x_16 x_30 x_34) (not (and x_16 x_30 x_34))))
(assert (and (or x_16 x_63 x_65) (not (and x_16 x_63 x_65))))
(assert (and (or x_17 x_144 x_145) (not (and x_17 x_144 x_145))))
(assert (and (or x_18 x_24 x_30) (not (and x_18 x_24 x_30))))
(assert (and (or x_18 x_80 x_82) (not (and x_18 x_80 x_82))))
(assert (and (or x_19 x_180 x_181) (not (and x_19 x_180 x_181))))
(assert (and (or x_20 x_15 x_25) (not (and x_20 x_15 x_25))))
(assert (and (or x_20 x_21 x_29) (not (and x_20 x_21 x_29))))
(assert (and (or x_20 x_48 x_52) (not (and x_20 x_48 x_52))))
(assert (and (or x_20 x_99 x_101) (not (and x_20 x_99 x_101))))
(assert (and (or x_21 x_20 x_29) (not (and x_21 x_20 x_29))))
(assert (and (or x_21 x_28 x_35) (not (and x_21 x_28 x_35))))
(assert (and (or x_21 x_72 x_75) (not (and x_21 x_72 x_75))))
(assert (and (or x_22 x_120 x_122) (not (and x_22 x_120 x_122))))
(assert (and (or x_24 x_7 x_25) (not (and x_24 x_7 x_25))))
(assert (and (or x_24 x_10 x_26) (not (and x_24 x_10 x_26))))
(assert (and (or x_24 x_18 x_30) (not (and x_24 x_18 x_30))))
(assert (and (or x_24 x_32 x_40) (not (and x_24 x_32 x_40))))
(assert (and (or x_24 x_45 x_51) (not (and x_24 x_45 x_51))))
(assert (and (or x_24 x_70 x_74) (not (and x_24 x_70 x_74))))
(assert (and (or x_24 x_143 x_145) (not (and x_24 x_143 x_145))))
(assert (and (or x_25 x_60 x_65) (not (and x_25 x_60 x_65))))
(assert (and (or x_26 x_168 x_170) (not (and x_26 x_168 x_170))))
(assert (and (or x_27 x_36 x_45) (not (and x_27 x_36 x_45))))
(assert (and (or x_27 x_120 x_123) (not (and x_27 x_120 x_123))))
(assert (and (or x_28 x_21 x_35) (not (and x_28 x_21 x_35))))
(assert (and (or x_28 x_45 x_53) (not (and x_28 x_45 x_53))))
(assert (and (or x_28 x_96 x_100) (not (and x_28 x_96 x_100))))
(assert (and (or x_28 x_195 x_197) (not (and x_28 x_195 x_197))))
(assert (and (or x_30 x_16 x_34) (not (and x_30 x_16 x_34))))
(assert (and (or x_30 x_40 x_50) (not (and x_30 x_40 x_50))))
(assert (and (or x_30 x_72 x_78) (not (and x_30 x_72 x_78))))
(assert (and (or x_32 x_24 x_40) (not (and x_32 x_24 x_40))))
(assert (and (or x_32 x_60 x_68) (not (and x_32 x_60 x_68))))
(assert (and (or x_32 x_126 x_130) (not (and x_32 x_126 x_130))))
(assert (and (or x_33 x_44 x_55) (not (and x_33 x_44 x_55))))
(assert (and (or x_33 x_56 x_65) (not (and x_33 x_56 x_65))))
(assert (and (or x_33 x_180 x_183) (not (and x_33 x_180 x_183))))
(assert (and (or x_35 x_12 x_37) (not (and x_35 x_12 x_37))))
(assert (and (or x_35 x_84 x_91) (not (and x_35 x_84 x_91))))
(assert (and (or x_35 x_120 x_125) (not (and x_35 x_120 x_125))))
(assert (and (or x_36 x_15 x_39) (not (and x_36 x_15 x_39))))
(assert (and (or x_36 x_27 x_45) (not (and x_36 x_27 x_45))))
(assert (and (or x_36 x_48 x_60) (not (and x_36 x_48 x_60))))
(assert (and (or x_36 x_77 x_85) (not (and x_36 x_77 x_85))))
(assert (and (or x_36 x_105 x_111) (not (and x_36 x_105 x_111))))
(assert (and (or x_36 x_160 x_164) (not (and x_36 x_160 x_164))))
(assert (and (or x_39 x_52 x_65) (not (and x_39 x_52 x_65))))
(assert (and (or x_39 x_80 x_89) (not (and x_39 x_80 x_89))))
(assert (and (or x_40 x_9 x_41) (not (and x_40 x_9 x_41))))
(assert (and (or x_40 x_30 x_50) (not (and x_40 x_30 x_50))))
(assert (and (or x_40 x_42 x_58) (not (and x_40 x_42 x_58))))
(assert (and (or x_40 x_75 x_85) (not (and x_40 x_75 x_85))))
(assert (and (or x_40 x_96 x_104) (not (and x_40 x_96 x_104))))
(assert (and (or x_42 x_40 x_58) (not (and x_42 x_40 x_58))))
(assert (and (or x_42 x_56 x_70) (not (and x_42 x_56 x_70))))
(assert (and (or x_42 x_144 x_150) (not (and x_42 x_144 x_150))))
(assert (and (or x_44 x_33 x_55) (not (and x_44 x_33 x_55))))
(assert (and (or x_44 x_117 x_125) (not (and x_44 x_117 x_125))))
(assert (and (or x_45 x_24 x_51) (not (and x_45 x_24 x_51))))
(assert (and (or x_45 x_28 x_53) (not (and x_45 x_28 x_53))))
(assert (and (or x_45 x_60 x_75) (not (and x_45 x_60 x_75))))
(assert (and (or x_45 x_108 x_117) (not (and x_45 x_108 x_117))))
(assert (and (or x_48 x_14 x_50) (not (and x_48 x_14 x_50))))
(assert (and (or x_48 x_20 x_52) (not (and x_48 x_20 x_52))))
(assert (and (or x_48 x_36 x_60) (not (and x_48 x_36 x_60))))
(assert (and (or x_48 x_55 x_73) (not (and x_48 x_55 x_73))))
(assert (and (or x_48 x_64 x_80) (not (and x_48 x_64 x_80))))
(assert (and (or x_48 x_90 x_102) (not (and x_48 x_90 x_102))))
(assert (and (or x_48 x_140 x_148) (not (and x_48 x_140 x_148))))
(assert (and (or x_48 x_189 x_195) (not (and x_48 x_189 x_195))))
(assert (and (or x_49 x_168 x_175) (not (and x_49 x_168 x_175))))
(assert (and (or x_50 x_120 x_130) (not (and x_50 x_120 x_130))))
(assert (and (or x_51 x_68 x_85) (not (and x_51 x_68 x_85))))
(assert (and (or x_51 x_140 x_149) (not (and x_51 x_140 x_149))))
(assert (and (or x_52 x_39 x_65) (not (and x_52 x_39 x_65))))
(assert (and (or x_52 x_165 x_173) (not (and x_52 x_165 x_173))))
(assert (and (or x_54 x_72 x_90) (not (and x_54 x_72 x_90))))
(assert (and (or x_55 x_48 x_73) (not (and x_55 x_48 x_73))))
(assert (and (or x_55 x_132 x_143) (not (and x_55 x_132 x_143))))
(assert (and (or x_56 x_33 x_65) (not (and x_56 x_33 x_65))))
(assert (and (or x_56 x_42 x_70) (not (and x_56 x_42 x_70))))
(assert (and (or x_56 x_90 x_106) (not (and x_56 x_90 x_106))))
(assert (and (or x_56 x_105 x_119) (not (and x_56 x_105 x_119))))
(assert (and (or x_56 x_192 x_200) (not (and x_56 x_192 x_200))))
(assert (and (or x_57 x_76 x_95) (not (and x_57 x_76 x_95))))
(assert (and (or x_57 x_176 x_185) (not (and x_57 x_176 x_185))))
(assert (and (or x_60 x_11 x_61) (not (and x_60 x_11 x_61))))
(assert (and (or x_60 x_25 x_65) (not (and x_60 x_25 x_65))))
(assert (and (or x_60 x_32 x_68) (not (and x_60 x_32 x_68))))
(assert (and (or x_60 x_45 x_75) (not (and x_60 x_45 x_75))))
(assert (and (or x_60 x_63 x_87) (not (and x_60 x_63 x_87))))
(assert (and (or x_60 x_80 x_100) (not (and x_60 x_80 x_100))))
(assert (and (or x_60 x_91 x_109) (not (and x_60 x_91 x_109))))
(assert (and (or x_60 x_144 x_156) (not (and x_60 x_144 x_156))))
(assert (and (or x_60 x_175 x_185) (not (and x_60 x_175 x_185))))
(assert (and (or x_63 x_16 x_65) (not (and x_63 x_16 x_65))))
(assert (and (or x_63 x_60 x_87) (not (and x_63 x_60 x_87))))
(assert (and (or x_63 x_84 x_105) (not (and x_63 x_84 x_105))))
(assert (and (or x_64 x_48 x_80) (not (and x_64 x_48 x_80))))
(assert (and (or x_64 x_120 x_136) (not (and x_64 x_120 x_136))))
(assert (and (or x_65 x_72 x_97) (not (and x_65 x_72 x_97))))
(assert (and (or x_65 x_156 x_169) (not (and x_65 x_156 x_169))))
(assert (and (or x_66 x_88 x_110) (not (and x_66 x_88 x_110))))
(assert (and (or x_66 x_112 x_130) (not (and x_66 x_112 x_130))))
(assert (and (or x_68 x_51 x_85) (not (and x_68 x_51 x_85))))
(assert (and (or x_69 x_92 x_115) (not (and x_69 x_92 x_115))))
(assert (and (or x_70 x_24 x_74) (not (and x_70 x_24 x_74))))
(assert (and (or x_70 x_168 x_182) (not (and x_70 x_168 x_182))))
(assert (and (or x_72 x_21 x_75) (not (and x_72 x_21 x_75))))
(assert (and (or x_72 x_30 x_78) (not (and x_72 x_30 x_78))))
(assert (and (or x_72 x_54 x_90) (not (and x_72 x_54 x_90))))
(assert (and (or x_72 x_65 x_97) (not (and x_72 x_65 x_97))))
(assert (and (or x_72 x_96 x_120) (not (and x_72 x_96 x_120))))
(assert (and (or x_72 x_135 x_153) (not (and x_72 x_135 x_153))))
(assert (and (or x_72 x_154 x_170) (not (and x_72 x_154 x_170))))
(assert (and (or x_75 x_40 x_85) (not (and x_75 x_40 x_85))))
(assert (and (or x_75 x_100 x_125) (not (and x_75 x_100 x_125))))
(assert (and (or x_75 x_180 x_195) (not (and x_75 x_180 x_195))))
(assert (and (or x_76 x_57 x_95) (not (and x_76 x_57 x_95))))
(assert (and (or x_77 x_36 x_85) (not (and x_77 x_36 x_85))))
(assert (and (or x_78 x_104 x_130) (not (and x_78 x_104 x_130))))
(assert (and (or x_78 x_160 x_178) (not (and x_78 x_160 x_178))))
(assert (and (or x_80 x_18 x_82) (not (and x_80 x_18 x_82))))
(assert (and (or x_80 x_39 x_89) (not (and x_80 x_39 x_89))))
(assert (and (or x_80 x_60 x_100) (not (and x_80 x_60 x_100))))
(assert (and (or x_80 x_84 x_116) (not (and x_80 x_84 x_116))))
(assert (and (or x_80 x_150 x_170) (not (and x_80 x_150 x_170))))
(assert (and (or x_81 x_108 x_135) (not (and x_81 x_108 x_135))))
(assert (and (or x_84 x_13 x_85) (not (and x_84 x_13 x_85))))
(assert (and (or x_84 x_35 x_91) (not (and x_84 x_35 x_91))))
(assert (and (or x_84 x_63 x_105) (not (and x_84 x_63 x_105))))
(assert (and (or x_84 x_80 x_116) (not (and x_84 x_80 x_116))))
(assert (and (or x_84 x_112 x_140) (not (and x_84 x_112 x_140))))
(assert (and (or x_84 x_135 x_159) (not (and x_84 x_135 x_159))))
(assert (and (or x_85 x_132 x_157) (not (and x_85 x_132 x_157))))
(assert (and (or x_87 x_116 x_145) (not (and x_87 x_116 x_145))))
(assert (and (or x_88 x_66 x_110) (not (and x_88 x_66 x_110))))
(assert (and (or x_88 x_105 x_137) (not (and x_88 x_105 x_137))))
(assert (and (or x_88 x_165 x_187) (not (and x_88 x_165 x_187))))
(assert (and (or x_90 x_48 x_102) (not (and x_90 x_48 x_102))))
(assert (and (or x_90 x_56 x_106) (not (and x_90 x_56 x_106))))
(assert (and (or x_90 x_120 x_150) (not (and x_90 x_120 x_150))))
(assert (and (or x_91 x_60 x_109) (not (and x_91 x_60 x_109))))
(assert (and (or x_92 x_69 x_115) (not (and x_92 x_69 x_115))))
(assert (and (or x_93 x_124 x_155) (not (and x_93 x_124 x_155))))
(assert (and (or x_95 x_168 x_193) (not (and x_95 x_168 x_193))))
(assert (and (or x_96 x_28 x_100) (not (and x_96 x_28 x_100))))
(assert (and (or x_96 x_40 x_104) (not (and x_96 x_40 x_104))))
(assert (and (or x_96 x_72 x_120) (not (and x_96 x_72 x_120))))
(assert (and (or x_96 x_110 x_146) (not (and x_96 x_110 x_146))))
(assert (and (or x_96 x_128 x_160) (not (and x_96 x_128 x_160))))
(assert (and (or x_99 x_20 x_101) (not (and x_99 x_20 x_101))))
(assert (and (or x_99 x_132 x_165) (not (and x_99 x_132 x_165))))
(assert (and (or x_99 x_168 x_195) (not (and x_99 x_168 x_195))))
(assert (and (or x_100 x_75 x_125) (not (and x_100 x_75 x_125))))
(assert (and (or x_100 x_105 x_145) (not (and x_100 x_105 x_145))))
(assert (and (or x_102 x_136 x_170) (not (and x_102 x_136 x_170))))
(assert (and (or x_104 x_78 x_130) (not (and x_104 x_78 x_130))))
(assert (and (or x_104 x_153 x_185) (not (and x_104 x_153 x_185))))
(assert (and (or x_105 x_36 x_111) (not (and x_105 x_36 x_111))))
(assert (and (or x_105 x_56 x_119) (not (and x_105 x_56 x_119))))
(assert (and (or x_105 x_88 x_137) (not (and x_105 x_88 x_137))))
(assert (and (or x_105 x_100 x_145) (not (and x_105 x_100 x_145))))
(assert (and (or x_105 x_140 x_175) (not (and x_105 x_140 x_175))))
(assert (and (or x_108 x_45 x_117) (not (and x_108 x_45 x_117))))
(assert (and (or x_108 x_81 x_135) (not (and x_108 x_81 x_135))))
(assert (and (or x_108 x_144 x_180) (not (and x_108 x_144 x_180))))
(assert (and (or x_110 x_96 x_146) (not (and x_110 x_96 x_146))))
(assert (and (or x_111 x_148 x_185) (not (and x_111 x_148 x_185))))
(assert (and (or x_112 x_15 x_113) (not (and x_112 x_15 x_113))))
(assert (and (or x_112 x_66 x_130) (not (and x_112 x_66 x_130))))
(assert (and (or x_112 x_84 x_140) (not (and x_112 x_84 x_140))))
(assert (and (or x_114 x_152 x_190) (not (and x_114 x_152 x_190))))
(assert (and (or x_116 x_87 x_145) (not (and x_116 x_87 x_145))))
(assert (and (or x_117 x_44 x_125) (not (and x_117 x_44 x_125))))
(assert (and (or x_117 x_156 x_195) (not (and x_117 x_156 x_195))))
(assert (and (or x_119 x_120 x_169) (not (and x_119 x_120 x_169))))
(assert (and (or x_120 x_22 x_122) (not (and x_120 x_22 x_122))))
(assert (and (or x_120 x_27 x_123) (not (and x_120 x_27 x_123))))
(assert (and (or x_120 x_35 x_125) (not (and x_120 x_35 x_125))))
(assert (and (or x_120 x_50 x_130) (not (and x_120 x_50 x_130))))
(assert (and (or x_120 x_64 x_136) (not (and x_120 x_64 x_136))))
(assert (and (or x_120 x_90 x_150) (not (and x_120 x_90 x_150))))
(assert (and (or x_120 x_119 x_169) (not (and x_120 x_119 x_169))))
(assert (and (or x_120 x_126 x_174) (not (and x_120 x_126 x_174))))
(assert (and (or x_120 x_160 x_200) (not (and x_120 x_160 x_200))))
(assert (and (or x_124 x_93 x_155) (not (and x_124 x_93 x_155))))
(assert (and (or x_126 x_32 x_130) (not (and x_126 x_32 x_130))))
(assert (and (or x_126 x_120 x_174) (not (and x_126 x_120 x_174))))
(assert (and (or x_128 x_96 x_160) (not (and x_128 x_96 x_160))))
(assert (and (or x_130 x_144 x_194) (not (and x_130 x_144 x_194))))
(assert (and (or x_132 x_55 x_143) (not (and x_132 x_55 x_143))))
(assert (and (or x_132 x_85 x_157) (not (and x_132 x_85 x_157))))
(assert (and (or x_132 x_99 x_165) (not (and x_132 x_99 x_165))))
(assert (and (or x_135 x_72 x_153) (not (and x_135 x_72 x_153))))
(assert (and (or x_135 x_84 x_159) (not (and x_135 x_84 x_159))))
(assert (and (or x_136 x_102 x_170) (not (and x_136 x_102 x_170))))
(assert (and (or x_140 x_48 x_148) (not (and x_140 x_48 x_148))))
(assert (and (or x_140 x_51 x_149) (not (and x_140 x_51 x_149))))
(assert (and (or x_140 x_105 x_175) (not (and x_140 x_105 x_175))))
(assert (and (or x_143 x_24 x_145) (not (and x_143 x_24 x_145))))
(assert (and (or x_144 x_17 x_145) (not (and x_144 x_17 x_145))))
(assert (and (or x_144 x_42 x_150) (not (and x_144 x_42 x_150))))
(assert (and (or x_144 x_60 x_156) (not (and x_144 x_60 x_156))))
(assert (and (or x_144 x_108 x_180) (not (and x_144 x_108 x_180))))
(assert (and (or x_144 x_130 x_194) (not (and x_144 x_130 x_194))))
(assert (and (or x_148 x_111 x_185) (not (and x_148 x_111 x_185))))
(assert (and (or x_150 x_80 x_170) (not (and x_150 x_80 x_170))))
(assert (and (or x_152 x_114 x_190) (not (and x_152 x_114 x_190))))
(assert (and (or x_153 x_104 x_185) (not (and x_153 x_104 x_185))))
(assert (and (or x_154 x_72 x_170) (not (and x_154 x_72 x_170))))
(assert (and (or x_156 x_65 x_169) (not (and x_156 x_65 x_169))))
(assert (and (or x_156 x_117 x_195) (not (and x_156 x_117 x_195))))
(assert (and (or x_160 x_36 x_164) (not (and x_160 x_36 x_164))))
(assert (and (or x_160 x_78 x_178) (not (and x_160 x_78 x_178))))
(assert (and (or x_160 x_120 x_200) (not (and x_160 x_120 x_200))))
(assert (and (or x_165 x_52 x_173) (not (and x_165 x_52 x_173))))
(assert (and (or x_165 x_88 x_187) (not (and x_165 x_88 x_187))))
(assert (and (or x_168 x_26 x_170) (not (and x_168 x_26 x_170))))
(assert (and (or x_168 x_49 x_175) (not (and x_168 x_49 x_175))))
(assert (and (or x_168 x_70 x_182) (not (and x_168 x_70 x_182))))
(assert (and (or x_168 x_95 x_193) (not (and x_168 x_95 x_193))))
(assert (and (or x_168 x_99 x_195) (not (and x_168 x_99 x_195))))
(assert (and (or x_175 x_60 x_185) (not (and x_175 x_60 x_185))))
(assert (and (or x_176 x_57 x_185) (not (and x_176 x_57 x_185))))
(assert (and (or x_180 x_19 x_181) (not (and x_180 x_19 x_181))))
(assert (and (or x_180 x_33 x_183) (not (and x_180 x_33 x_183))))
(assert (and (or x_180 x_75 x_195) (not (and x_180 x_75 x_195))))
(assert (and (or x_189 x_48 x_195) (not (and x_189 x_48 x_195))))
(assert (and (or x_192 x_56 x_200) (not (and x_192 x_56 x_200))))
(assert (and (or x_195 x_28 x_197) (not (and x_195 x_28 x_197))))
(check-sat)
